100
1000
800
784
783
774
753
752
751
748
741
729
720
718
716
713
699
685
683
681
678
673
667
666
663
657
652
647
647
646
643
642
639
635
626
623
609
594
585
581
566
564
556
552
539
532
531
524
523
519
513
501
483
479
477
474
468
451
450
448
446
445
443
443
435
425
421
411
406
405
405
383
362
357
356
351
346
344
338
335
328
321
311
305
301
292
286
286
285
277
267
263
257
252
242
238
237
226
209
208
208
202
